c instance by G2
c solution = 10011110100100100
c Known solution cost is 753 
p cnf 17 30
w 81 80 52 85 32 3 72 3 21 33 52 50 65 1 11 86 26
4 2 -7 0
-10 -16 -15 0
-7 -4 -10 0
-12 -14 1 0
14 -11 -9 0
10 2 -13 0
-13 -11 16 0
17 15 14 0
-16 -12 -15 0
-3 15 -12 0
2 -17 8 0
16 5 -7 0
-1 -2 -15 0
6 8 -12 0
-9 15 -4 0
16 8 9 0
-1 12 13 0
-7 -14 -9 0
1 10 -15 0
15 -12 -16 0
-15 7 14 0
-2 -11 9 0
15 -13 2 0
-15 6 10 0
-5 -8 2 0
-12 -3 2 0
-15 -12 6 0
-8 10 -3 0
9 16 -17 0
7 1 3 0
